p cnf 240 490
-16 -19 0
16 19 0
19 -21 0
-19 21 0
-22 21 0
22 -21 0
-31 16 0
31 -16 0
-32 -31 0
32 31 0
-33 32 0
-32 33 0
-33 -34 0
34 33 0
-34 -22 0
-39 -22 0
38 -39 0
39 -38 22 0
-40 -21 0
40 21 0
-42 -40 0
42 40 0
-43 -42 0
43 42 0
-44 43 0
-44 -39 0
39 44 -43 0
-45 22 0
42 -45 0
45 -42 -22 0
-46 -45 0
-44 -46 0
46 44 45 0
-47 16 0
47 -16 0
-48 47 0
48 -47 0
-49 -48 0
49 48 0
-50 -49 0
50 49 0
-51 -50 0
51 50 0
-52 -51 0
-52 -46 0
46 52 51 0
-51 -22 -43 0
-52 -54 0
54 52 0
-58 -54 0
54 58 0
-58 -60 0
60 58 0
-61 -60 0
60 61 0
-63 51 0
63 -51 0
-65 50 0
65 -50 0
-66 -65 0
-66 -63 0
63 65 66 0
-67 43 0
-67 51 0
-51 67 -43 0
-67 -68 0
-68 -65 0
68 65 67 0
-69 68 0
69 -68 0
-61 -69 0
-71 34 0
43 -71 0
38 -71 0
71 -38 -43 -34 0
-72 34 0
-72 42 0
-34 -42 72 0
-72 -73 0
-73 -71 0
73 71 72 0
-74 -51 0
-74 -73 0
74 73 51 0
-75 34 0
-75 51 0
-51 75 -34 0
-75 -76 0
-76 -74 0
76 74 75 0
-77 -76 0
77 76 0
-78 33 0
-78 43 0
-33 78 -43 0
-79 -51 0
-78 -79 0
79 51 78 0
-75 -80 0
-80 -79 0
80 79 75 0
-82 -77 0
82 77 0
-83 -82 0
83 82 0
-61 -83 0
-88 -61 0
87 -88 0
-87 88 61 0
-89 43 0
-89 -38 0
38 89 -43 0
-90 -51 0
-90 -89 0
90 89 51 0
-91 42 0
51 -91 0
-51 -42 91 0
-92 -91 0
-92 -90 0
90 92 91 0
-93 -92 0
93 92 0
-94 43 0
50 -94 0
94 -50 -43 0
-96 -93 0
96 93 0
-97 -96 0
97 96 0
-98 97 0
-88 -98 0
88 98 -97 0
-99 61 0
-99 96 0
99 -96 -61 0
-100 -99 0
-98 -100 0
100 98 99 0
-101 43 0
-101 38 0
101 -38 -43 0
-102 -51 0
-102 -101 0
101 102 51 0
-103 -91 0
-103 -102 0
103 102 91 0
-104 -103 0
104 103 0
-105 43 0
-105 51 0
-51 105 -43 0
-106 -94 0
-105 -106 0
106 94 105 0
-108 -104 0
108 104 0
-109 -108 0
109 108 0
-110 -109 0
-100 -110 0
100 110 109 0
-111 61 0
-111 97 0
-111 109 0
-61 -109 -97 111 0
-111 -112 0
-110 -112 0
110 112 111 0
-113 -43 0
-113 -51 0
51 43 113 0
-114 113 0
-113 114 0
-114 -115 0
115 114 0
115 -116 0
-112 -116 0
112 116 -115 0
-117 114 0
61 -117 0
-61 -114 117 0
-117 -118 0
-116 -118 0
116 118 117 0
-118 -119 0
118 119 0
-120 69 0
97 -120 0
-69 -97 120 0
-121 109 0
-120 -121 0
121 -109 120 0
-122 -69 0
122 69 0
-123 122 0
-123 108 0
123 -108 -122 0
-124 -123 0
-124 -121 0
121 123 124 0
-125 122 0
-125 97 0
-125 109 0
-109 -97 -122 125 0
-125 -126 0
-126 -123 0
123 125 126 0
126 -127 -115 0
115 124 -127 0
-126 -115 127 0
115 -124 127 0
-119 -127 0
-129 83 0
97 -129 0
-129 87 0
-87 129 -83 -97 0
-130 83 0
-130 96 0
-83 -96 130 0
-130 -131 0
-129 -131 0
131 129 130 0
-109 -132 0
-132 -131 0
132 131 109 0
-133 83 0
-133 109 0
-83 -109 133 0
-133 -134 0
-132 -134 0
134 132 133 0
115 -135 0
-135 -134 0
135 134 -115 0
-136 82 0
-136 97 0
136 -82 -97 0
-137 -109 0
-136 -137 0
137 136 109 0
-133 -138 0
-138 -137 0
138 137 133 0
-139 -115 0
-138 -139 0
115 138 139 0
-139 -140 0
-135 -140 0
140 135 139 0
-141 -140 0
140 141 0
-141 -119 0
-146 -119 0
145 -146 0
-145 119 146 0
-147 97 0
-87 -147 0
87 147 -97 0
-148 -109 0
-147 -148 0
147 148 109 0
-149 96 0
109 -149 0
-96 -109 149 0
-150 -149 0
-148 -150 0
148 150 149 0
115 -151 0
-150 -151 0
151 150 -115 0
97 -152 0
-152 108 0
152 -108 -97 0
-153 -115 0
-152 -153 0
115 152 153 0
-153 -154 0
-154 -151 0
151 154 153 0
-154 -155 0
154 155 0
155 -156 0
-146 -156 0
156 -155 146 0
-157 119 0
154 -157 0
-154 157 -119 0
-157 -158 0
-156 -158 0
156 158 157 0
-159 97 0
87 -159 0
-87 159 -97 0
-160 -109 0
-159 -160 0
159 160 109 0
-149 -161 0
-160 -161 0
161 160 149 0
115 -162 0
-161 -162 0
161 162 -115 0
-163 97 0
-163 109 0
163 -109 -97 0
-164 -152 0
-163 -164 0
164 152 163 0
-165 -115 0
-164 -165 0
115 164 165 0
-165 -166 0
-162 -166 0
166 162 165 0
-166 -167 0
166 167 0
-167 -168 0
-158 -168 0
168 158 167 0
-169 119 0
-169 155 0
167 -169 0
-155 -167 -119 169 0
-169 -170 0
-168 -170 0
168 169 170 0
-171 -97 0
-171 -109 0
97 109 171 0
-172 171 -115 0
115 -149 -172 0
-171 172 -115 0
115 149 172 0
-172 -173 0
173 172 0
173 -174 0
-170 -174 0
174 170 -173 0
-175 172 0
-175 119 0
-119 -172 175 0
-175 -176 0
-174 -176 0
174 175 176 0
-176 -177 0
176 177 0
-178 127 0
155 -178 0
-127 -155 178 0
-179 167 0
-178 -179 0
179 -167 178 0
-180 -127 0
180 127 0
-181 180 0
166 -181 0
181 -166 -180 0
-182 -181 0
-182 -179 0
181 182 179 0
-183 180 0
155 -183 0
-183 167 0
-155 -167 -180 183 0
-183 -184 0
-181 -184 0
181 183 184 0
-185 184 -173 0
173 182 -185 0
-184 -173 185 0
173 -182 185 0
-185 -177 0
-187 141 0
155 -187 0
-187 145 0
-141 -145 -155 187 0
-188 141 0
-188 154 0
-141 -154 188 0
-188 -189 0
-187 -189 0
189 188 187 0
-167 -190 0
-190 -189 0
190 189 167 0
-191 141 0
-191 167 0
-141 -167 191 0
-191 -192 0
-190 -192 0
190 191 192 0
173 -193 0
-192 -193 0
193 192 -173 0
140 -194 0
155 -194 0
194 -155 -140 0
-167 -195 0
-194 -195 0
194 195 167 0
-191 -196 0
-195 -196 0
195 196 191 0
-197 -173 0
-196 -197 0
173 196 197 0
-197 -198 0
-193 -198 0
193 197 198 0
-198 -199 0
198 199 0
-199 -177 0
114 -205 0
43 -209 0
-43 209 0
51 -210 0
-209 -210 0
-51 209 210 0
-210 -211 0
210 211 0
-211 -212 0
211 212 0
-212 -213 0
212 213 0
-213 -214 0
213 214 0
-214 -215 0
214 215 0
214 -216 0
-215 -217 0
215 217 0
97 -217 -218 0
-97 218 0
97 217 218 0
109 -219 0
-218 -219 0
-109 218 219 0
-219 -220 0
219 220 0
115 -221 0
-220 -221 0
-115 220 221 0
-221 -222 0
221 222 0
-222 -223 0
222 223 0
114 -224 0
214 -224 0
-114 -214 224 0
214 -225 0
108 -225 0
-108 -214 225 0
-97 -214 -226 0
97 214 -226 0
97 -214 226 0
-97 214 226 0
109 -227 0
-226 -227 0
-109 226 227 0
-227 -228 0
-225 -228 0
225 227 228 0
115 -229 0
-228 -229 0
-115 228 229 0
-229 -230 0
-224 -230 0
224 229 230 0
-230 -231 0
230 231 0
231 -232 0
223 -232 0
-223 -231 232 0
-97 -233 0
109 -233 0
115 -233 0
231 -236 0
223 -236 0
-155 -237 0
167 -237 0
173 -237 0
118 -127 21 0
-21 127 0
134 112 61 0
38 51 176 91 -43 0
-185 21 176 0
-127 185 176 0
119 192 170 0
